# Objective value = 6.6483399745912233e-02
err 6.6483399745912233e-02
s1 2.9150905487167702e+03
s2 2279.96
s3 2.1980699350038371e+03
s4 1796.12
s5 1795.12
s6 1675
b1 3.2614945128322961e+02
b2 2.1974006499616280e+02
b3 3
b4 2
b5 1
SYS 0
comm 0
